--- Job tut_1_1_wk3.gms Start 10/02/19 09:55:07 28.2.0 r750fa45 DEX-DEG x86 64bit/Mac OS X
--- GAMS Parameters defined
    Input /Users/victor_medina/OneDrive - University of Edinburgh/CMSE11356/wk3/tut_1_1_wk3.gms
    PageSize 0
    ScrDir /Users/victor_medina/OneDrive - University of Edinburgh/CMSE11356/wk3/225a/
    SysDir /Applications/GAMS28.2/sysdir/
    LogOption 3
    ErrMsg 1
    ErrorLog 99
    IDE 1
    LstTitleLeftAligned 1
GAMS 28.2.0   Copyright (C) 1987-2019 GAMS Development. All rights reserved
Licensee: Course License Advanced Analytics with MathematG190618/0001AO-GEN
          The University of Edinburgh - Business School               DCE66
          License for teaching and research at degree granting institutions
          License Admin: Douglas Alem, douglas.alem@ed.ac.uk               
--- Starting compilation
--- tut_1_1_wk3.gms(51) 3 Mb
--- Starting execution: elapsed 0:00:00.006
--- Generating LP model transport1
--- tut_1_1_wk3.gms(48) 4 Mb
---   6 rows  7 columns  19 non-zeroes
--- Executing CPLEX: elapsed 0:00:00.018

IBM ILOG CPLEX   28.2.0 r750fa45 Released Aug 19, 2019 DEG x86 64bit/Mac OS X 
Cplex 12.9.0.0

Reading data...
Starting Cplex...
Space for names approximately 0.00 Mb
Use option 'names no' to turn use of names off
CPXPARAM_Advance                                 0
CPXPARAM_Simplex_Display                         2
CPXPARAM_Threads                                 1
CPXPARAM_Parallel                                1
CPXPARAM_Simplex_Limits_Iterations               2000000000
CPXPARAM_TimeLimit                               1000
CPXPARAM_Tune_TimeLimit                          200
Tried aggregator 1 time.
LP Presolve eliminated 3 rows and 4 columns.
Aggregator did 3 substitutions.
All rows and columns eliminated.
Presolve time = 0.00 sec. (0.00 ticks)
LP status(1): optimal
Cplex Time: 0.01sec (det. 0.01 ticks)

Optimal solution found.
Objective :       96000.000000

--- Restarting execution
--- tut_1_1_wk3.gms(48) 2 Mb
--- Reading solution for model transport1
--- Executing after solve: elapsed 0:00:00.103
--- tut_1_1_wk3.gms(51) 3 Mb
*** Status: Normal completion
--- Job tut_1_1_wk3.gms Stop 10/02/19 09:55:07 elapsed 0:00:00.103
